NAME: sim-grid-B-50
TYPE: TSP
COMMENT: Semi-regular Grid
DIMENSION: 50
EDGE_WEIGHT_TYPE: EUC_2D
NODE_COORD_SECTION
1 100 100
2 200 100
3 700 100
4 1000 100
5 1100 100
6 100 150
7 200 150
8 1000 150
9 1100 150
10 50 300
11 600 300
12 950 300
13 1100 300
14 1450 300
15 50 350
16 250 350
17 400 350
18 750 350
19 1450 350
20 50 500
21 100 500
22 450 500
23 500 500
24 700 500
25 900 500
26 1050 500
27 1300 500
28 1500 500
29 50 550
30 100 550
31 250 550
32 450 550
33 650 550
34 850 550
35 900 550
36 1250 550
37 1500 550
38 1050 700
39 1550 700
40 100 750
41 300 750
42 350 750
43 550 750
44 600 750
45 800 750
46 1050 750
47 1100 750
48 1300 750
49 1350 750
50 1550 750
EOF
